3 40 1 10
6 3 12 11 2 12 8 20 5 18 16 9 20 14 4 18 2 3 14 8 20 12 20 9 18 2 15 4 12 17 1 14 19 4 12 4 10 1 1 14 
1.39 2.32 2.75 2.49 7.7 1.16 5.11 3.73 5.62 1.21 3.05 0.5 5.91 6.59 1.67 4.99 2.25 5.99 4.3 1.5 1.38 4.44 7.04 1.36 1.98 5.59 3.88 2.42 7.47 4.47 2.94 5.71 4.6 5.47 5.5 6.78 3.48 7.22 2.06 7.95 
4 4 4 4 4 4 4 4 4 4 4 4 4 4 4 4 4 4 4 4 4 4 4 4 4 4 4 4 4 4 4 4 4 4 4 4 4 4 4 4 
4.17 4.03 6.4 2.44 3.28 6.21 5.5 0.02 2.02 1.78 3.12 1.43 7.53 4.09 0.54 4.83 7.31 2.74 0.42 3.97 6.49 0.57 3.02 7.41 5.61 5.06 1.85 0.83 1.42 4.15 0.72 5.37 0.06 1.96 2.99 2.38 0.33 3.24 2.26 2.79 
1 1 1 1 1 1 1 1 1 1 1 1 1 1 1 1 1 1 1 1 1 1 1 1 1 1 1 1 1 1 1 1 1 1 1 1 1 1 1 1 
1 1 1 1 1 1 1 1 1 1 1 1 1 1 1 1 1 1 1 1 1 1 1 1 1 1 1 1 1 1 1 1 1 1 1 1 1 1 1 1 
1 1 1 1 1 1 1 1 1 1 1 1 1 1 1 1 1 1 1 1 1 1 1 1 1 1 1 1 1 1 1 1 1 1 1 1 1 1 1 1 
0.01 0.01 0.01 0.01 0.01 0.01 0.01 0.01 0.01 0.01 0.01 0.01 0.01 0.01 0.01 0.01 0.01 0.01 0.01 0.01 0.01 0.01 0.01 0.01 0.01 0.01 0.01 0.01 0.01 0.01 0.01 0.01 0.01 0.01 0.01 0.01 0.01 0.01 0.01 0.01 
0.02 0.02 0.02 0.02 0.02 0.02 0.02 0.02 0.02 0.02 0.02 0.02 0.02 0.02 0.02 0.02 0.02 0.02 0.02 0.02 0.02 0.02 0.02 0.02 0.02 0.02 0.02 0.02 0.02 0.02 0.02 0.02 0.02 0.02 0.02 0.02 0.02 0.02 0.02 0.02 
1 1 1 1 1 1 1 1 1 1 1 1 1 1 1 1 1 1 1 1 1 1 1 1 1 1 1 1 1 1 1 1 1 1 1 1 1 1 1 1 
